HFVRP/X153-FSMFD.vrp
NAME: X153-FSMFD
COMMENT: Generated by Uchoa, Pecin, Pessoa, Poggi, Subramanian, and Vidal (2013). Modified by Sadykov, Pessoa and Uchoa (2017). Converted to PyVRP's VRPLIB dialect.
TYPE: HFVRP
DIMENSION: 153
VEHICLES: 456
EDGE_WEIGHT_TYPE: EUC_2D
NODE_COORD_SECTION
1	500	500
2	238	446
3	749	750
4	960	879
5	955	866
6	202	336
7	720	788
8	695	743
9	739	603
10	217	419
11	922	870
12	703	733
13	843	856
14	233	682
15	259	459
16	226	305
17	732	722
18	747	858
19	949	784
20	904	891
21	880	795
22	591	661
23	984	926
24	246	438
25	183	501
26	546	966
27	742	771
28	110	698
29	193	441
30	215	388
31	232	516
32	907	954
33	133	526
34	750	680
35	397	553
36	103	488
37	663	731
38	784	686
39	754	821
40	280	456
41	236	424
42	287	454
43	598	728
44	996	821
45	853	710
46	744	473
47	887	907
48	286	422
49	857	633
50	272	484
51	934	625
52	939	892
53	810	732
54	631	723
55	822	694
56	769	768
57	977	840
58	639	736
59	727	765
60	950	896
61	206	433
62	207	535
63	164	586
64	754	691
65	662	768
66	348	308
67	254	455
68	130	482
69	764	726
70	713	758
71	965	934
72	693	734
73	890	801
74	808	675
75	393	484
76	727	808
77	955	756
78	854	640
79	249	552
80	188	479
81	187	506
82	901	767
83	664	770
84	558	530
85	714	742
86	979	683
87	200	416
88	294	391
89	344	471
90	240	449
91	735	633
92	944	952
93	157	421
94	768	750
95	813	936
96	534	720
97	986	914
98	963	798
99	905	579
100	175	397
101	972	940
102	184	561
103	357	399
104	859	770
105	661	762
106	298	469
107	14	438
108	275	561
109	856	919
110	219	453
111	272	465
112	294	296
113	754	775
114	229	467
115	946	778
116	711	803
117	858	879
118	665	347
119	981	802
120	924	973
121	267	545
122	760	764
123	942	894
124	219	465
125	665	756
126	92	212
127	920	940
128	937	814
129	804	654
130	281	489
131	669	647
132	308	309
133	998	876
134	900	910
135	753	900
136	873	706
137	209	467
138	991	966
139	766	729
140	341	458
141	897	957
142	224	368
143	818	679
144	707	703
145	280	450
146	252	462
147	717	683
148	458	236
149	989	489
150	278	356
151	144	446
152	991	818
153	831	812
DEMAND_SECTION
1	0
2	92
3	90
4	65
5	80
6	69
7	64
8	73
9	96
10	74
11	81
12	67
13	58
14	79
15	85
16	57
17	90
18	84
19	84
20	92
21	87
22	95
23	66
24	86
25	90
26	94
27	84
28	98
29	65
30	68
31	73
32	51
33	6
34	7
35	6
36	3
37	2
38	3
39	7
40	2
41	9
42	1
43	6
44	4
45	8
46	2
47	8
48	5
49	9
50	2
51	1
52	3
53	9
54	8
55	9
56	6
57	1
58	4
59	8
60	3
61	5
62	3
63	2
64	4
65	10
66	4
67	7
68	8
69	9
70	8
71	4
72	8
73	5
74	1
75	9
76	5
77	6
78	9
79	3
80	3
81	8
82	6
83	9
84	4
85	3
86	5
87	9
88	5
89	2
90	4
91	4
92	8
93	10
94	4
95	5
96	2
97	3
98	1
99	3
100	1
101	10
102	1
103	7
104	5
105	1
106	7
107	8
108	10
109	9
110	1
111	4
112	7
113	6
114	2
115	4
116	5
117	2
118	1
119	5
120	6
121	3
122	2
123	7
124	9
125	1
126	1
127	5
128	8
129	8
130	2
131	7
132	5
133	9
134	5
135	8
136	5
137	9
138	1
139	6
140	1
141	9
142	9
143	3
144	1
145	8
146	2
147	8
148	8
149	10
150	9
151	1
152	1
153	8
CAPACITY_SECTION
1	98
2	98
3	98
4	98
5	98
6	98
7	98
8	98
9	98
10	98
11	98
12	98
13	98
14	98
15	98
16	98
17	98
18	98
19	98
20	98
21	98
22	98
23	98
24	98
25	98
26	98
27	98
28	98
29	98
30	98
31	98
32	98
33	98
34	98
35	98
36	98
37	98
38	98
39	98
40	98
41	98
42	98
43	98
44	98
45	98
46	98
47	98
48	98
49	98
50	98
51	98
52	98
53	98
54	98
55	98
56	98
57	98
58	98
59	98
60	98
61	98
62	98
63	98
64	98
65	98
66	98
67	98
68	98
69	98
70	98
71	98
72	98
73	98
74	98
75	98
76	98
77	98
78	98
79	98
80	98
81	98
82	98
83	98
84	98
85	98
86	98
87	98
88	98
89	98
90	98
91	98
92	98
93	98
94	98
95	98
96	98
97	98
98	98
99	98
100	98
101	98
102	98
103	98
104	98
105	98
106	98
107	98
108	98
109	98
110	98
111	98
112	98
113	98
114	98
115	98
116	98
117	98
118	98
119	98
120	98
121	98
122	98
123	98
124	98
125	98
126	98
127	98
128	98
129	98
130	98
131	98
132	98
133	98
134	98
135	98
136	98
137	98
138	98
139	98
140	98
141	98
142	98
143	98
144	98
145	98
146	98
147	98
148	98
149	98
150	98
151	98
152	98
153	138
154	138
155	138
156	138
157	138
158	138
159	138
160	138
161	138
162	138
163	138
164	138
165	138
166	138
167	138
168	138
169	138
170	138
171	138
172	138
173	138
174	138
175	138
176	138
177	138
178	138
179	138
180	138
181	138
182	138
183	138
184	138
185	138
186	138
187	138
188	138
189	138
190	138
191	138
192	138
193	138
194	138
195	138
196	138
197	138
198	138
199	138
200	138
201	138
202	138
203	138
204	138
205	138
206	138
207	138
208	138
209	138
210	138
211	138
212	138
213	138
214	138
215	138
216	138
217	138
218	138
219	138
220	138
221	138
222	138
223	138
224	138
225	138
226	138
227	138
228	138
229	138
230	138
231	138
232	138
233	138
234	138
235	138
236	138
237	138
238	138
239	138
240	138
241	138
242	138
243	138
244	138
245	138
246	138
247	138
248	138
249	138
250	138
251	138
252	138
253	138
254	138
255	138
256	138
257	138
258	138
259	138
260	138
261	138
262	138
263	138
264	138
265	138
266	138
267	138
268	138
269	138
270	138
271	138
272	138
273	138
274	138
275	138
276	138
277	138
278	138
279	138
280	138
281	138
282	138
283	138
284	138
285	138
286	138
287	138
288	138
289	138
290	138
291	138
292	138
293	138
294	138
295	138
296	138
297	138
298	138
299	138
300	138
301	138
302	138
303	138
304	138
305	196
306	196
307	196
308	196
309	196
310	196
311	196
312	196
313	196
314	196
315	196
316	196
317	196
318	196
319	196
320	196
321	196
322	196
323	196
324	196
325	196
326	196
327	196
328	196
329	196
330	196
331	196
332	196
333	196
334	196
335	196
336	196
337	196
338	196
339	196
340	196
341	196
342	196
343	196
344	196
345	196
346	196
347	196
348	196
349	196
350	196
351	196
352	196
353	196
354	196
355	196
356	196
357	196
358	196
359	196
360	196
361	196
362	196
363	196
364	196
365	196
366	196
367	196
368	196
369	196
370	196
371	196
372	196
373	196
374	196
375	196
376	196
377	196
378	196
379	196
380	196
381	196
382	196
383	196
384	196
385	196
386	196
387	196
388	196
389	196
390	196
391	196
392	196
393	196
394	196
395	196
396	196
397	196
398	196
399	196
400	196
401	196
402	196
403	196
404	196
405	196
406	196
407	196
408	196
409	196
410	196
411	196
412	196
413	196
414	196
415	196
416	196
417	196
418	196
419	196
420	196
421	196
422	196
423	196
424	196
425	196
426	196
427	196
428	196
429	196
430	196
431	196
432	196
433	196
434	196
435	196
436	196
437	196
438	196
439	196
440	196
441	196
442	196
443	196
444	196
445	196
446	196
447	196
448	196
449	196
450	196
451	196
452	196
453	196
454	196
455	196
456	196
VEHICLES_FIXED_COST_SECTION
1	21500
2	21500
3	21500
4	21500
5	21500
6	21500
7	21500
8	21500
9	21500
10	21500
11	21500
12	21500
13	21500
14	21500
15	21500
16	21500
17	21500
18	21500
19	21500
20	21500
21	21500
22	21500
23	21500
24	21500
25	21500
26	21500
27	21500
28	21500
29	21500
30	21500
31	21500
32	21500
33	21500
34	21500
35	21500
36	21500
37	21500
38	21500
39	21500
40	21500
41	21500
42	21500
43	21500
44	21500
45	21500
46	21500
47	21500
48	21500
49	21500
50	21500
51	21500
52	21500
53	21500
54	21500
55	21500
56	21500
57	21500
58	21500
59	21500
60	21500
61	21500
62	21500
63	21500
64	21500
65	21500
66	21500
67	21500
68	21500
69	21500
70	21500
71	21500
72	21500
73	21500
74	21500
75	21500
76	21500
77	21500
78	21500
79	21500
80	21500
81	21500
82	21500
83	21500
84	21500
85	21500
86	21500
87	21500
88	21500
89	21500
90	21500
91	21500
92	21500
93	21500
94	21500
95	21500
96	21500
97	21500
98	21500
99	21500
100	21500
101	21500
102	21500
103	21500
104	21500
105	21500
106	21500
107	21500
108	21500
109	21500
110	21500
111	21500
112	21500
113	21500
114	21500
115	21500
116	21500
117	21500
118	21500
119	21500
120	21500
121	21500
122	21500
123	21500
124	21500
125	21500
126	21500
127	21500
128	21500
129	21500
130	21500
131	21500
132	21500
133	21500
134	21500
135	21500
136	21500
137	21500
138	21500
139	21500
140	21500
141	21500
142	21500
143	21500
144	21500
145	21500
146	21500
147	21500
148	21500
149	21500
150	21500
151	21500
152	21500
153	33000
154	33000
155	33000
156	33000
157	33000
158	33000
159	33000
160	33000
161	33000
162	33000
163	33000
164	33000
165	33000
166	33000
167	33000
168	33000
169	33000
170	33000
171	33000
172	33000
173	33000
174	33000
175	33000
176	33000
177	33000
178	33000
179	33000
180	33000
181	33000
182	33000
183	33000
184	33000
185	33000
186	33000
187	33000
188	33000
189	33000
190	33000
191	33000
192	33000
193	33000
194	33000
195	33000
196	33000
197	33000
198	33000
199	33000
200	33000
201	33000
202	33000
203	33000
204	33000
205	33000
206	33000
207	33000
208	33000
209	33000
210	33000
211	33000
212	33000
213	33000
214	33000
215	33000
216	33000
217	33000
218	33000
219	33000
220	33000
221	33000
222	33000
223	33000
224	33000
225	33000
226	33000
227	33000
228	33000
229	33000
230	33000
231	33000
232	33000
233	33000
234	33000
235	33000
236	33000
237	33000
238	33000
239	33000
240	33000
241	33000
242	33000
243	33000
244	33000
245	33000
246	33000
247	33000
248	33000
249	33000
250	33000
251	33000
252	33000
253	33000
254	33000
255	33000
256	33000
257	33000
258	33000
259	33000
260	33000
261	33000
262	33000
263	33000
264	33000
265	33000
266	33000
267	33000
268	33000
269	33000
270	33000
271	33000
272	33000
273	33000
274	33000
275	33000
276	33000
277	33000
278	33000
279	33000
280	33000
281	33000
282	33000
283	33000
284	33000
285	33000
286	33000
287	33000
288	33000
289	33000
290	33000
291	33000
292	33000
293	33000
294	33000
295	33000
296	33000
297	33000
298	33000
299	33000
300	33000
301	33000
302	33000
303	33000
304	33000
305	50200
306	50200
307	50200
308	50200
309	50200
310	50200
311	50200
312	50200
313	50200
314	50200
315	50200
316	50200
317	50200
318	50200
319	50200
320	50200
321	50200
322	50200
323	50200
324	50200
325	50200
326	50200
327	50200
328	50200
329	50200
330	50200
331	50200
332	50200
333	50200
334	50200
335	50200
336	50200
337	50200
338	50200
339	50200
340	50200
341	50200
342	50200
343	50200
344	50200
345	50200
346	50200
347	50200
348	50200
349	50200
350	50200
351	50200
352	50200
353	50200
354	50200
355	50200
356	50200
357	50200
358	50200
359	50200
360	50200
361	50200
362	50200
363	50200
364	50200
365	50200
366	50200
367	50200
368	50200
369	50200
370	50200
371	50200
372	50200
373	50200
374	50200
375	50200
376	50200
377	50200
378	50200
379	50200
380	50200
381	50200
382	50200
383	50200
384	50200
385	50200
386	50200
387	50200
388	50200
389	50200
390	50200
391	50200
392	50200
393	50200
394	50200
395	50200
396	50200
397	50200
398	50200
399	50200
400	50200
401	50200
402	50200
403	50200
404	50200
405	50200
406	50200
407	50200
408	50200
409	50200
410	50200
411	50200
412	50200
413	50200
414	50200
415	50200
416	50200
417	50200
418	50200
419	50200
420	50200
421	50200
422	50200
423	50200
424	50200
425	50200
426	50200
427	50200
428	50200
429	50200
430	50200
431	50200
432	50200
433	50200
434	50200
435	50200
436	50200
437	50200
438	50200
439	50200
440	50200
441	50200
442	50200
443	50200
444	50200
445	50200
446	50200
447	50200
448	50200
449	50200
450	50200
451	50200
452	50200
453	50200
454	50200
455	50200
456	50200
VEHICLES_UNIT_DISTANCE_COST_SECTION
1	77
2	77
3	77
4	77
5	77
6	77
7	77
8	77
9	77
10	77
11	77
12	77
13	77
14	77
15	77
16	77
17	77
18	77
19	77
20	77
21	77
22	77
23	77
24	77
25	77
26	77
27	77
28	77
29	77
30	77
31	77
32	77
33	77
34	77
35	77
36	77
37	77
38	77
39	77
40	77
41	77
42	77
43	77
44	77
45	77
46	77
47	77
48	77
49	77
50	77
51	77
52	77
53	77
54	77
55	77
56	77
57	77
58	77
59	77
60	77
61	77
62	77
63	77
64	77
65	77
66	77
67	77
68	77
69	77
70	77
71	77
72	77
73	77
74	77
75	77
76	77
77	77
78	77
79	77
80	77
81	77
82	77
83	77
84	77
85	77
86	77
87	77
88	77
89	77
90	77
91	77
92	77
93	77
94	77
95	77
96	77
97	77
98	77
99	77
100	77
101	77
102	77
103	77
104	77
105	77
106	77
107	77
108	77
109	77
110	77
111	77
112	77
113	77
114	77
115	77
116	77
117	77
118	77
119	77
120	77
121	77
122	77
123	77
124	77
125	77
126	77
127	77
128	77
129	77
130	77
131	77
132	77
133	77
134	77
135	77
136	77
137	77
138	77
139	77
140	77
141	77
142	77
143	77
144	77
145	77
146	77
147	77
148	77
149	77
150	77
151	77
152	77
153	100
154	100
155	100
156	100
157	100
158	100
159	100
160	100
161	100
162	100
163	100
164	100
165	100
166	100
167	100
168	100
169	100
170	100
171	100
172	100
173	100
174	100
175	100
176	100
177	100
178	100
179	100
180	100
181	100
182	100
183	100
184	100
185	100
186	100
187	100
188	100
189	100
190	100
191	100
192	100
193	100
194	100
195	100
196	100
197	100
198	100
199	100
200	100
201	100
202	100
203	100
204	100
205	100
206	100
207	100
208	100
209	100
210	100
211	100
212	100
213	100
214	100
215	100
216	100
217	100
218	100
219	100
220	100
221	100
222	100
223	100
224	100
225	100
226	100
227	100
228	100
229	100
230	100
231	100
232	100
233	100
234	100
235	100
236	100
237	100
238	100
239	100
240	100
241	100
242	100
243	100
244	100
245	100
246	100
247	100
248	100
249	100
250	100
251	100
252	100
253	100
254	100
255	100
256	100
257	100
258	100
259	100
260	100
261	100
262	100
263	100
264	100
265	100
266	100
267	100
268	100
269	100
270	100
271	100
272	100
273	100
274	100
275	100
276	100
277	100
278	100
279	100
280	100
281	100
282	100
283	100
284	100
285	100
286	100
287	100
288	100
289	100
290	100
291	100
292	100
293	100
294	100
295	100
296	100
297	100
298	100
299	100
300	100
301	100
302	100
303	100
304	100
305	129
306	129
307	129
308	129
309	129
310	129
311	129
312	129
313	129
314	129
315	129
316	129
317	129
318	129
319	129
320	129
321	129
322	129
323	129
324	129
325	129
326	129
327	129
328	129
329	129
330	129
331	129
332	129
333	129
334	129
335	129
336	129
337	129
338	129
339	129
340	129
341	129
342	129
343	129
344	129
345	129
346	129
347	129
348	129
349	129
350	129
351	129
352	129
353	129
354	129
355	129
356	129
357	129
358	129
359	129
360	129
361	129
362	129
363	129
364	129
365	129
366	129
367	129
368	129
369	129
370	129
371	129
372	129
373	129
374	129
375	129
376	129
377	129
378	129
379	129
380	129
381	129
382	129
383	129
384	129
385	129
386	129
387	129
388	129
389	129
390	129
391	129
392	129
393	129
394	129
395	129
396	129
397	129
398	129
399	129
400	129
401	129
402	129
403	129
404	129
405	129
406	129
407	129
408	129
409	129
410	129
411	129
412	129
413	129
414	129
415	129
416	129
417	129
418	129
419	129
420	129
421	129
422	129
423	129
424	129
425	129
426	129
427	129
428	129
429	129
430	129
431	129
432	129
433	129
434	129
435	129
436	129
437	129
438	129
439	129
440	129
441	129
442	129
443	129
444	129
445	129
446	129
447	129
448	129
449	129
450	129
451	129
452	129
453	129
454	129
455	129
456	129
DEPOT_SECTION
1
EOF
